336 335 334 283 284 285 286 287 280 281 282 279 278 288 289 290 277 276 275 274 273 272 271 267 268 269 270 292 291 293 294 295 296 297 321 320 319 317 318 305 306 304 303 307 506 507 508 302 301 300 299 298 266 265 264 263 262 261 260 259 258 257 256 255 253 254 252 251 250 249 248 241 242 243 244 245 247 246 238 239 240 237 236 235 234 232 233 530 531 532 533 489 488 534 535 487 486 490 529 528 527 512 511 510 509 513 514 515 516 517 520 521 522 523 526 491 492 493 525 524 494 472 471 495 518 519 497 496 470 469 468 571 573 572 8 17 18 19 20 568 569 570 474 473 567 566 565 564 563 562 561 560 550 551 101 100 102 549 548 478 477 479 480 476 475 482 481 483 485 484 536 537 539 538 540 176 177 178 187 188 186 229 230 231 228 227 189 225 226 190 191 192 193 219 218 220 221 222 224 223 217 216 215 214 213 212 211 210 209 208 207 206 205 197 196 195 194 184 185 183 182 179 181 180 169 171 170 168 162 163 167 166 198 199 200 201 202 204 203 165 164 154 160 161 113 131 132 133 134 135 158 157 159 156 155 153 146 145 144 143 142 147 148 152 149 150 151 141 140 139 136 137 138 129 130 128 127 126 125 124 69 70 68 67 66 65 72 71 123 122 117 116 115 114 112 111 110 109 108 172 175 174 173 107 542 541 544 545 546 547 543 103 104 105 106 118 121 120 119 73 74 75 76 64 62 63 61 60 59 58 57 82 81 80 79 78 77 88 89 94 95 96 97 98 99 552 553 554 556 555 45 46 91 92 93 90 87 86 85 84 83 56 55 53 54 52 51 50 49 48 47 44 43 42 39 40 41 557 559 558 35 38 37 36 33 34 32 30 31 29 28 27 26 25 24 21 22 23 12 13 14 15 16 11 10 9 7 6 5 0 4 1 2 3 455 456 457 458 459 460 466 467 465 464 463 462 461 452 453 499 500 501 498 502 503 504 505 308 309 310 311 451 312 313 316 314 315 374 373 372 371 396 395 375 376 377 378 379 380 381 447 448 449 450 441 440 442 446 445 444 443 439 454 438 437 436 435 434 433 432 430 431 429 428 427 426 382 425 424 423 422 421 420 419 417 418 410 411 412 356 409 384 383 385 386 387 388 389 390 392 391 393 394 397 398 399 407 408 406 405 404 400 403 402 401 360 357 355 354 353 352 413 414 416 415 351 350 349 347 348 358 359 361 363 362 346 345 364 365 367 368 369 370 323 322 324 325 326 327 328 329 366 342 343 344 341 340 330 331 332 333 339 338 337